p cnf 23 37
1 2 3 0
-1 -2 0
-1 -3 0
-2 -3 0
4 5 0
-4 -5 0
6 7 0
-6 -7 0
8 9 0
-8 -9 0
10 11 0
-10 -11 0
12 13 0
-12 -13 0
14 15 0
-14 -15 0
16 17 0
-16 -17 0
18 19 20 0
-18 -19 0
-18 -20 0
-19 -20 0
21 22 23 0
-21 -22 0
-21 -23 0
-22 -23 0
-1 -12 0
-3 -13 0
-2 -19 0
-4 -22 0
-5 -23 0
-7 -13 0
-11 -13 0
-10 -16 0
-11 -17 0
-18 -22 0
-19 -23 0
